(set-info :smt-lib-version 2.6)
(set-logic QF_S)
(set-info :source |
Generated by: Murphy Berzish, Mitja Kulczynski, Federico Mora, Florin Manea, Joel Day, Dirk Nowotka, Vijay Ganesh, Zhengyang Lu
Generated on: 2020-10-01
Description: Translated from a collection of real-world regex queries, AutomataArk, collected by Loris D’Antoni and Fang Wang: https://github.com/lorisdanto/automatark
Application: Evaluate solvers on real-world regex queries
Target solver: Z3str3RE, CVC4, OSTRICH, Z3seq, Z3str3, Z3-Trau
Publications: Berzish, M., Kulczynski, M., Mora, F., Manea, F., Day, J. D., Nowotka, D., & Ganesh, V. (2021, July). An SMT solver for regular expressions and linear arithmetic over string length. In CAV 2021.
|)
(set-info :license "https://creativecommons.org/licenses/by/4.0/")
(set-info :category "industrial")
(set-info :status unsat)

(declare-const X String)
(assert (str.in_re X (str.to_re "Subject:.bmpfromemail=couponbar.coupons.comToolbarxml.alexa.com\u{a}")))
(assert (not (str.in_re X (re.++ (str.to_re "/filename=") (re.* (re.comp (str.to_re "\u{a}"))) (str.to_re ".k3g/i\u{a}")))))
(assert (not (str.in_re X (re.++ (re.union ((_ re.loop 1 1) (re.++ ((_ re.loop 1 1) (re.union (str.to_re "Ctrl+Shift+Alt+") (str.to_re "Ctrl+Shift+") (str.to_re "Ctrl+Alt+") (str.to_re "Shift+Alt+") (str.to_re "Ctrl+") (str.to_re "Alt+"))) ((_ re.loop 1 1) (re.union (re.++ (str.to_re "F1") (re.range "0" "2")) (re.++ (str.to_re "F") (re.range "1" "9")) (re.range "A" "Z") (re.range "a" "z") (re.range "0" "9") (str.to_re "-") (str.to_re "=") (str.to_re "[") (str.to_re "]") (str.to_re "\u{5c}") (str.to_re ";") (str.to_re "'") (str.to_re ",") (str.to_re ".") (str.to_re "/"))))) (re.++ (re.opt (str.to_re "Shift+")) ((_ re.loop 1 1) (re.++ (str.to_re "F") (re.union (re.++ (str.to_re "1") (re.range "0" "2")) (re.range "1" "9")))))) (str.to_re "\u{a}")))))
(assert (not (str.in_re X (str.to_re "hirmvtg/ggqh.kqh\u{1b}Surveillance\u{13}Host:\u{a}"))))
(assert (str.in_re X (re.++ (re.opt (re.++ (str.to_re "1") (re.* (re.union (str.to_re " ") (str.to_re "\u{9}") (str.to_re "\u{a}") (str.to_re "\u{c}") (str.to_re "\u{d}"))) (re.opt (re.union (str.to_re "-") (str.to_re "/") (str.to_re "."))))) (re.union (re.++ (str.to_re "(") ((_ re.loop 3 3) (re.range "0" "9")) (str.to_re ")")) ((_ re.loop 3 3) (re.range "0" "9"))) (re.* (re.union (str.to_re " ") (str.to_re "\u{9}") (str.to_re "\u{a}") (str.to_re "\u{c}") (str.to_re "\u{d}"))) (re.opt (re.union (str.to_re "-") (str.to_re "/") (str.to_re "."))) (re.* (re.union (str.to_re " ") (str.to_re "\u{9}") (str.to_re "\u{a}") (str.to_re "\u{c}") (str.to_re "\u{d}"))) ((_ re.loop 3 3) (re.range "0" "9")) (re.* (re.union (str.to_re " ") (str.to_re "\u{9}") (str.to_re "\u{a}") (str.to_re "\u{c}") (str.to_re "\u{d}"))) (re.opt (re.union (str.to_re "-") (str.to_re "/") (str.to_re "."))) (re.* (re.union (str.to_re " ") (str.to_re "\u{9}") (str.to_re "\u{a}") (str.to_re "\u{c}") (str.to_re "\u{d}"))) ((_ re.loop 4 4) (re.range "0" "9")) (re.* (re.union (str.to_re " ") (str.to_re "\u{9}") (str.to_re "\u{a}") (str.to_re "\u{c}") (str.to_re "\u{d}"))) (re.* (re.++ (re.union (re.++ (re.union (str.to_re "e") (str.to_re "E")) (re.union (str.to_re "x") (str.to_re "X")) (re.union (str.to_re "t") (str.to_re "T"))) (str.to_re "x") (str.to_re "X")) (re.opt (str.to_re ".")) (re.* (re.union (str.to_re " ") (str.to_re "\u{9}") (str.to_re "\u{a}") (str.to_re "\u{c}") (str.to_re "\u{d}"))) (re.+ (re.range "0" "9")))) (str.to_re "\u{a}"))))
(check-sat)

(exit)
